
Gurobi 7.5.1 (linux64, Python) logging started Thu Dec 20 08:34:17 2018

Academic license - for non-commercial use only
Optimize a model with 154 rows, 74 columns and 359 nonzeros
Coefficient statistics:
  Matrix range     [9e-02, 1e+00]
  Objective range  [1e+00, 1e+00]
  Bounds range     [0e+00, 0e+00]
  RHS range        [2e+00, 1e+06]
Presolve removed 0 rows and 6 columns
Presolve time: 0.00s
Presolved: 154 rows, 68 columns, 320 nonzeros

Iteration    Objective       Primal Inf.    Dual Inf.      Time
       0    5.8192597e+06   5.291790e+05   0.000000e+00      0s
      81    1.3655152e+08   0.000000e+00   0.000000e+00      0s

Solved in 81 iterations and 0.00 seconds
Optimal objective  1.365515211e+08

Gurobi 7.5.1 (linux64, Python) logging started Thu Dec 20 08:34:23 2018

Academic license - for non-commercial use only
Optimize a model with 178 rows, 71 columns and 456 nonzeros
Coefficient statistics:
  Matrix range     [9e-02, 1e+00]
  Objective range  [1e+00, 1e+00]
  Bounds range     [0e+00, 0e+00]
  RHS range        [2e+00, 1e+06]
Presolve removed 0 rows and 6 columns
Presolve time: 0.00s
Presolved: 178 rows, 65 columns, 432 nonzeros

Iteration    Objective       Primal Inf.    Dual Inf.      Time
       0    1.3876416e+07   4.975068e+06   0.000000e+00      0s
      69    1.7599241e+08   0.000000e+00   0.000000e+00      0s

Solved in 69 iterations and 0.00 seconds
Optimal objective  1.759924094e+08

Gurobi 7.5.1 (linux64, Python) logging started Thu Dec 20 09:09:22 2018


Gurobi 7.5.1 (linux64, Python) logging started Thu Dec 20 09:13:08 2018

Academic license - for non-commercial use only
Optimize a model with 314 rows, 125 columns and 1323 nonzeros
Coefficient statistics:
  Matrix range     [1e-03, 1e+00]
  Objective range  [1e+00, 1e+00]
  Bounds range     [0e+00, 0e+00]
  RHS range        [2e+00, 1e+06]
Presolve removed 30 rows and 6 columns
Presolve time: 0.00s
Presolved: 284 rows, 119 columns, 1204 nonzeros

Iteration    Objective       Primal Inf.    Dual Inf.      Time
       0    1.5222327e+07   1.826552e+06   0.000000e+00      0s
     115    1.5528650e+08   0.000000e+00   0.000000e+00      0s

Solved in 115 iterations and 0.00 seconds
Optimal objective  1.552864985e+08

Gurobi 7.5.1 (linux64, Python) logging started Thu Dec 20 10:17:06 2018


Gurobi 7.5.1 (linux64, Python) logging started Thu Dec 20 17:13:14 2018


Gurobi 7.5.1 (linux64, Python) logging started Thu Dec 20 17:13:43 2018

Academic license - for non-commercial use only
Optimize a model with 544 rows, 232 columns and 3172 nonzeros
Coefficient statistics:
  Matrix range     [4e-02, 1e+00]
  Objective range  [1e+00, 1e+00]
  Bounds range     [0e+00, 0e+00]
  RHS range        [2e+00, 1e+06]
Presolve removed 40 rows and 24 columns
Presolve time: 0.00s
Presolved: 504 rows, 208 columns, 2784 nonzeros

Iteration    Objective       Primal Inf.    Dual Inf.      Time
       0    1.8069880e+07   3.363061e+07   0.000000e+00      0s
     249    4.0141191e+08   0.000000e+00   0.000000e+00      0s

Solved in 249 iterations and 0.01 seconds
Optimal objective  4.014119066e+08

Gurobi 7.5.1 (linux64, Python) logging started Thu Dec 20 17:14:01 2018

Academic license - for non-commercial use only
Optimize a model with 832 rows, 280 columns and 3216 nonzeros
Coefficient statistics:
  Matrix range     [4e-02, 1e+00]
  Objective range  [1e+00, 1e+00]
  Bounds range     [0e+00, 0e+00]
  RHS range        [2e+00, 1e+06]
Presolve removed 48 rows and 8 columns
Presolve time: 0.00s
Presolved: 784 rows, 272 columns, 2928 nonzeros

Iteration    Objective       Primal Inf.    Dual Inf.      Time
       0    1.8069880e+07   2.202420e+07   0.000000e+00      0s
     312    6.5778563e+08   0.000000e+00   0.000000e+00      0s

Solved in 312 iterations and 0.01 seconds
Optimal objective  6.577856251e+08

Gurobi 7.5.1 (linux64, Python) logging started Thu Dec 20 17:14:13 2018

Academic license - for non-commercial use only
Optimize a model with 752 rows, 264 columns and 3032 nonzeros
Coefficient statistics:
  Matrix range     [4e-02, 1e+00]
  Objective range  [1e+00, 1e+00]
  Bounds range     [0e+00, 0e+00]
  RHS range        [2e+00, 1e+06]
Presolve removed 56 rows and 8 columns
Presolve time: 0.00s
Presolved: 696 rows, 256 columns, 2832 nonzeros

Iteration    Objective       Primal Inf.    Dual Inf.      Time
       0    1.8226237e+07   1.389420e+07   0.000000e+00      0s
     301    5.2638613e+08   0.000000e+00   0.000000e+00      0s

Solved in 301 iterations and 0.01 seconds
Optimal objective  5.263861287e+08

Gurobi 7.5.1 (linux64, Python) logging started Thu Dec 20 17:14:38 2018


Gurobi 7.5.1 (linux64, Python) logging started Thu Dec 20 17:20:19 2018

Academic license - for non-commercial use only
Optimize a model with 12240 rows, 3976 columns and 318128 nonzeros
Coefficient statistics:
  Matrix range     [2e-03, 1e+00]
  Objective range  [1e+00, 1e+00]
  Bounds range     [0e+00, 0e+00]
  RHS range        [2e+00, 1e+06]

Concurrent LP optimizer: dual simplex and barrier
Showing barrier log only...

Presolve removed 224 rows and 1024 columns
Presolve time: 1.03s
Presolved: 3752 rows, 11216 columns, 297960 nonzeros

Ordering time: 0.21s

Barrier statistics:
 Dense cols : 632
 AA' NZ     : 2.821e+05
 Factor NZ  : 5.689e+05 (roughly 10 MBytes of memory)
 Factor Ops : 1.218e+08 (less than 1 second per iteration)
 Threads    : 1

                  Objective                Residual
Iter       Primal          Dual         Primal    Dual     Compl     Time
   0   2.41312293e+08  1.43382685e+06  1.61e+03 5.69e+05  4.04e+07     2s
   1   2.28562235e+08  1.93623062e+10  1.18e+03 4.10e+05  2.76e+07     2s
   2   1.85639714e+08  2.32368441e+10  8.74e+01 1.09e+05  4.04e+06     2s
   3   1.09732693e+09  1.49161726e+10  4.30e+00 4.03e+04  1.40e+06     2s
   4   2.64577863e+09  7.73579465e+09  7.00e-01 1.05e+04  4.88e+05     2s
   5   4.01660366e+09  6.35094274e+09  6.47e-02 5.05e+03  2.23e+05     2s
   6   4.46387417e+09  5.02813533e+09  5.93e-03 1.10e+03  5.35e+04     2s
   7   4.54146785e+09  4.70613298e+09  1.39e-03 3.06e+02  1.56e+04     2s
   8   4.56199755e+09  4.64493988e+09  4.65e-04 1.56e+02  7.84e+03     2s
   9   4.56745061e+09  4.61657401e+09  2.92e-04 8.33e+01  4.61e+03     2s
  10   4.57925680e+09  4.60194405e+09  2.75e-05 4.60e+01  2.15e+03     2s
  11   4.58275491e+09  4.59044428e+09  2.38e-06 1.48e+01  7.27e+02     2s
  12   4.58410694e+09  4.58630277e+09  1.04e-06 3.61e+00  2.06e+02     2s
  13   4.58451747e+09  4.58541634e+09  8.36e-07 1.49e+00  8.42e+01     2s
  14   4.58466122e+09  4.58492728e+09  1.76e-06 4.35e-01  2.49e+01     2s
  15   4.58468735e+09  4.58476383e+09  1.09e-06 1.08e-01  7.11e+00     2s
  16   4.58470111e+09  4.58471600e+09  7.09e-07 1.83e-02  1.38e+00     2s
  17   4.58470443e+09  4.58470750e+09  3.58e-07 4.07e-03  2.85e-01     2s
  18   4.58470488e+09  4.58470495e+09  4.35e-07 1.96e-05  5.31e-03     2s
  19   4.58470491e+09  4.58470491e+09  2.00e-09 1.74e-08  5.32e-06     2s
  20   4.58470491e+09  4.58470491e+09  2.00e-09 1.74e-08  5.32e-06     2s

Barrier solved model in 20 iterations and 2.47 seconds
Optimal objective 4.58470491e+09

Crossover log...

       0 DPushes remaining with DInf 3.6326473e-07                 3s

     700 PPushes remaining with PInf 0.0000000e+00                 3s
       0 PPushes remaining with PInf 0.0000000e+00                 3s

  Push phase complete: Pinf 0.0000000e+00, Dinf 3.8226126e-07      3s

Iteration    Objective       Primal Inf.    Dual Inf.      Time
     930    4.5847049e+09   0.000000e+00   0.000000e+00      3s
     930    4.5847049e+09   0.000000e+00   0.000000e+00      3s

Solved with barrier
Solved in 930 iterations and 3.12 seconds
Optimal objective  4.584704912e+09

Gurobi 7.5.1 (linux64, Python) logging started Thu Dec 20 17:21:44 2018

Academic license - for non-commercial use only
Optimize a model with 4336 rows, 1456 columns and 56140 nonzeros
Coefficient statistics:
  Matrix range     [5e-03, 1e+00]
  Objective range  [1e+00, 1e+00]
  Bounds range     [0e+00, 0e+00]
  RHS range        [2e+00, 1e+06]

Concurrent LP optimizer: dual simplex and barrier
Showing barrier log only...

Presolve removed 72 rows and 426 columns
Presolve time: 0.06s
Presolved: 1384 rows, 3910 columns, 52494 nonzeros

Ordering time: 0.01s

Barrier statistics:
 Dense cols : 288
 AA' NZ     : 4.702e+04
 Factor NZ  : 8.928e+04 (roughly 3 MBytes of memory)
 Factor Ops : 5.481e+06 (less than 1 second per iteration)
 Threads    : 1

                  Objective                Residual
Iter       Primal          Dual         Primal    Dual     Compl     Time
   0   8.34072244e+08  4.32426830e+08  5.54e+02 3.04e+06  1.82e+08     0s
   1   1.03377853e+09  3.04204521e+10  3.27e+02 2.48e+06  1.00e+08     0s
   2   1.77667146e+08  3.76961861e+10  6.14e+00 3.57e-08  1.09e+07     0s
   3   3.75279967e+08  1.04764186e+10  4.10e-13 2.16e-08  2.58e+06     0s
   4   6.68976079e+08  6.26880418e+09  4.19e-13 1.50e-08  1.43e+06     0s
   5   1.15855303e+09  3.66259149e+09  3.18e-13 7.70e-09  6.40e+05     0s
   6   1.63021209e+09  2.74578438e+09  7.86e-14 4.83e-09  2.85e+05     0s
   7   1.91937015e+09  2.23744174e+09  1.88e-13 2.41e-09  8.13e+04     0s
   8   2.00957292e+09  2.10078597e+09  3.20e-13 2.88e-09  2.33e+04     0s
   9   2.02891354e+09  2.06489982e+09  2.21e-13 3.18e-09  9.20e+03     0s
  10   2.04199961e+09  2.04915832e+09  3.19e-13 7.00e-09  1.83e+03     0s
  11   2.04375328e+09  2.04442209e+09  3.42e-14 2.26e-09  1.71e+02     0s
  12   2.04387446e+09  2.04394196e+09  5.20e-14 1.91e-09  1.73e+01     0s
  13   2.04388449e+09  2.04388623e+09  4.35e-14 2.23e-09  4.43e-01     0s
  14   2.04388577e+09  2.04388578e+09  5.42e-14 3.43e-09  4.43e-04     0s
  15   2.04388578e+09  2.04388578e+09  5.13e-11 4.25e-09  4.43e-07     0s
  16   2.04388578e+09  2.04388578e+09  4.83e-11 6.09e-02  4.43e-07     0s

Barrier solved model in 16 iterations and 0.17 seconds
Optimal objective 2.04388578e+09

Crossover log...

       0 DPushes remaining with DInf 1.5380891e-07                 0s

     150 PPushes remaining with PInf 0.0000000e+00                 0s
       0 PPushes remaining with PInf 0.0000000e+00                 0s

  Push phase complete: Pinf 0.0000000e+00, Dinf 1.5998177e-07      0s

Iteration    Objective       Primal Inf.    Dual Inf.      Time
     157    2.0438858e+09   0.000000e+00   0.000000e+00      0s
     157    2.0438858e+09   0.000000e+00   0.000000e+00      0s

Solved with barrier
Solved in 157 iterations and 0.24 seconds
Optimal objective  2.043885775e+09

Gurobi 7.5.1 (linux64, Python) logging started Thu Dec 20 17:29:05 2018


Gurobi 7.5.1 (linux64, Python) logging started Thu Dec 20 17:49:07 2018

Academic license - for non-commercial use only
Optimize a model with 19 rows, 9 columns and 42 nonzeros
Coefficient statistics:
  Matrix range     [3e-01, 1e+00]
  Objective range  [1e+00, 1e+00]
  Bounds range     [0e+00, 0e+00]
  RHS range        [2e+00, 2e+00]
Presolve time: 0.00s
Presolved: 19 rows, 9 columns, 42 nonzeros

Iteration    Objective       Primal Inf.    Dual Inf.      Time
       0    0.0000000e+00   0.000000e+00   0.000000e+00      0s

Solved in 0 iterations and 0.00 seconds
Optimal objective  0.000000000e+00

Gurobi 7.5.1 (linux64, Python) logging started Thu Dec 20 17:49:54 2018

Academic license - for non-commercial use only
Optimize a model with 19 rows, 9 columns and 42 nonzeros
Coefficient statistics:
  Matrix range     [3e-01, 1e+00]
  Objective range  [1e+00, 1e+00]
  Bounds range     [0e+00, 0e+00]
  RHS range        [2e+00, 2e+00]
Presolve time: 0.00s
Presolved: 19 rows, 9 columns, 42 nonzeros

Iteration    Objective       Primal Inf.    Dual Inf.      Time
       0    0.0000000e+00   0.000000e+00   0.000000e+00      0s

Solved in 0 iterations and 0.00 seconds
Optimal objective  0.000000000e+00

Gurobi 7.5.1 (linux64, Python) logging started Thu Dec 20 17:49:58 2018

Academic license - for non-commercial use only
Optimize a model with 41 rows, 19 columns and 106 nonzeros
Coefficient statistics:
  Matrix range     [2e-01, 1e+00]
  Objective range  [1e+00, 1e+00]
  Bounds range     [0e+00, 0e+00]
  RHS range        [2e+00, 1e+10]
Warning: Model contains large rhs
         Consider reformulating model or setting NumericFocus parameter
         to avoid numerical issues.
Presolve time: 0.00s
Presolved: 41 rows, 19 columns, 106 nonzeros

Iteration    Objective       Primal Inf.    Dual Inf.      Time
       0    0.0000000e+00   2.000000e+10   0.000000e+00      0s
      19    6.2316990e+11   0.000000e+00   0.000000e+00      0s

Solved in 19 iterations and 0.00 seconds
Optimal objective  6.231698986e+11
Warning: unscaled primal violation = 3.8147e-06 and residual = 3.8147e-06

Gurobi 7.5.1 (linux64, Python) logging started Thu Dec 20 17:50:24 2018

Academic license - for non-commercial use only
Optimize a model with 27 rows, 15 columns and 68 nonzeros
Coefficient statistics:
  Matrix range     [3e-01, 1e+00]
  Objective range  [1e+00, 1e+00]
  Bounds range     [0e+00, 0e+00]
  RHS range        [2e+00, 1e+10]
Warning: Model contains large rhs
         Consider reformulating model or setting NumericFocus parameter
         to avoid numerical issues.
Presolve time: 0.00s
Presolved: 27 rows, 15 columns, 68 nonzeros

Iteration    Objective       Primal Inf.    Dual Inf.      Time
       0    0.0000000e+00   2.000000e+10   0.000000e+00      0s
      15    4.5257153e+11   0.000000e+00   0.000000e+00      0s

Solved in 15 iterations and 0.00 seconds
Optimal objective  4.525715342e+11
Warning: unscaled primal violation = 7.62939e-06 and residual = 7.62939e-06
